n=12;
m=10;
Ba=4.544933;
Bp=1.413333;
Ha=[[0.054000,0.054000,0.054000,0.054000,0.054000,0.054000,0.054000,0.054000,0.000000,0.000000,0.000000,0.000000],[0.054000,13.600000,13.600000,13.600000,0.054000,0.054000,0.054000,0.054000,0.054000,0.054000,0.000000,0.000000],[0.054000,13.600000,13.600000,13.600000,0.054000,0.054000,0.054000,0.054000,0.054000,0.054000,0.000000,0.000000],[0.054000,13.600000,13.600000,13.600000,0.054000,0.054000,0.054000,0.054000,0.054000,0.054000,0.000000,0.000000],[0.054000,0.054000,0.054000,0.054000,0.054000,0.054000,0.054000,0.054000,0.054000,0.054000,0.000000,0.000000],[3.000000,3.000000,3.000000,3.000000,3.000000,0.054000,0.054000,0.054000,0.054000,0.054000,0.000000,0.000000],[3.000000,3.000000,3.000000,3.000000,3.000000,0.054000,0.054000,0.054000,0.054000,0.054000,0.000000,0.000000],[3.000000,3.000000,3.000000,3.000000,3.000000,0.054000,0.054000,0.054000,0.054000,0.054000,0.000000,0.000000],[3.000000,3.000000,3.000000,3.000000,3.000000,0.054000,0.054000,0.054000,0.054000,0.054000,0.000000,0.000000],[3.000000,3.000000,3.000000,3.000000,3.000000,0.054000,0.054000,0.054000,0.054000,0.054000,0.000000,0.000000]];
Ca=[[0.720000,0.720000,0.720000,0.720000,0.720000,0.720000,0.720000,0.720000,240.000000,240.000000,0.000000,0.000000],[0.720000,0.125000,0.125000,0.125000,0.720000,0.720000,0.720000,0.720000,0.720000,0.720000,0.000000,0.000000],[0.720000,0.125000,0.125000,0.125000,0.720000,0.720000,0.720000,0.720000,0.720000,0.720000,0.000000,0.000000],[0.720000,0.125000,0.125000,0.125000,0.720000,0.720000,0.720000,0.720000,0.720000,0.720000,0.000000,0.000000],[0.720000,0.720000,0.720000,0.720000,0.720000,0.720000,0.720000,0.720000,0.720000,0.720000,0.000000,0.000000],[0.365000,0.365000,0.365000,0.365000,0.365000,0.720000,0.720000,0.720000,0.720000,0.720000,0.000000,0.000000],[0.365000,0.365000,0.365000,0.365000,0.365000,0.720000,0.720000,0.720000,0.720000,0.720000,0.000000,0.000000],[0.365000,0.365000,0.365000,0.365000,0.365000,0.720000,0.720000,0.720000,0.720000,0.720000,0.000000,0.000000],[0.365000,0.365000,0.365000,0.365000,0.365000,0.720000,0.720000,0.720000,0.720000,0.720000,0.000000,0.000000],[0.365000,0.365000,0.365000,0.365000,0.365000,0.720000,0.720000,0.720000,0.720000,0.720000,0.000000,0.000000]];
Hp=[[0.054000,0.054000,0.054000,0.054000,0.054000,0.054000,0.054000,0.054000,0.000000,0.000000,0.000000,0.000000],[0.054000,13.600000,13.600000,13.600000,0.054000,0.054000,0.054000,0.054000,0.054000,0.054000,0.000000,0.000000],[0.054000,13.600000,13.600000,13.600000,0.054000,0.054000,0.054000,0.054000,0.054000,0.054000,0.000000,0.000000],[0.054000,13.600000,13.600000,13.600000,0.054000,0.054000,0.054000,0.054000,0.054000,0.054000,0.000000,0.000000],[0.054000,0.054000,0.054000,0.054000,0.054000,0.054000,0.054000,0.054000,0.054000,0.054000,0.000000,0.000000],[3.000000,3.000000,3.000000,3.000000,3.000000,0.054000,0.054000,0.054000,0.054000,0.054000,0.000000,0.000000],[3.000000,3.000000,3.000000,3.000000,3.000000,0.054000,0.054000,0.054000,0.054000,0.054000,0.000000,0.000000],[3.000000,3.000000,3.000000,3.000000,3.000000,0.054000,0.054000,0.054000,0.054000,0.054000,0.000000,0.000000],[3.000000,3.000000,3.000000,3.000000,3.000000,0.054000,0.054000,0.054000,0.054000,0.054000,0.000000,0.000000],[3.000000,3.000000,3.000000,3.000000,3.000000,0.054000,0.054000,0.054000,0.054000,0.054000,0.000000,0.000000]];
Cp=[[0.720000,0.720000,0.720000,0.720000,0.720000,0.720000,0.720000,0.720000,240.000000,240.000000,0.000000,0.000000],[0.720000,0.125000,0.125000,0.125000,0.720000,0.720000,0.720000,0.720000,0.720000,0.720000,0.000000,0.000000],[0.720000,0.125000,0.125000,0.125000,0.720000,0.720000,0.720000,0.720000,0.720000,0.720000,0.000000,0.000000],[0.720000,0.125000,0.125000,0.125000,0.720000,0.720000,0.720000,0.720000,0.720000,0.720000,0.000000,0.000000],[0.720000,0.720000,0.720000,0.720000,0.720000,0.720000,0.720000,0.720000,0.720000,0.720000,0.000000,0.000000],[0.365000,0.365000,0.365000,0.365000,0.365000,0.720000,0.720000,0.720000,0.720000,0.720000,0.000000,0.000000],[0.365000,0.365000,0.365000,0.365000,0.365000,0.720000,0.720000,0.720000,0.720000,0.720000,0.000000,0.000000],[0.365000,0.365000,0.365000,0.365000,0.365000,0.720000,0.720000,0.720000,0.720000,0.720000,0.000000,0.000000],[0.365000,0.365000,0.365000,0.365000,0.365000,0.720000,0.720000,0.720000,0.720000,0.720000,0.000000,0.000000],[0.365000,0.365000,0.365000,0.365000,0.365000,0.720000,0.720000,0.720000,0.720000,0.720000,0.000000,0.000000]];
